
Gurobi 11.0.3 (linux64) logging started Mon Aug 25 16:19:05 2025

Set parameter LogFile to value "/home/yihong/Coding/OR_SUC/SUC_epstheta_results_bigM100000_thread4/case24_ieee_rts_theta0.001_epsilon0.2_gurobi_seed80000_num_gen100_N_WDR50_load_scaling_factor1_ori_eps_T4quadra_cost_bc1.03.txt"
Set parameter TimeLimit to value 3600
Gurobi Optimizer version 11.0.3 build v11.0.3rc0 (linux64 - "Ubuntu 20.04.6 LTS")

CPU model: AMD EPYC 7532 32-Core Processor, instruction set [SSE2|AVX|AVX2]
Thread count: 64 physical cores, 128 logical processors, using up to 4 threads

Academic license 2399124 - for non-commercial use only - registered to yi___@ed.ac.uk
Optimize a model with 10688 rows, 5011 columns and 386358 nonzeros
Model fingerprint: 0x3a5ca0b1
Model has 400 quadratic constraints
Variable types: 4611 continuous, 400 integer (400 binary)
Coefficient statistics:
  Matrix range     [3e-04, 2e+03]
  QMatrix range    [2e-03, 8e-03]
  QLMatrix range   [6e-02, 6e+01]
  Objective range  [1e+00, 1e+00]
  Bounds range     [1e+00, 1e+00]
  RHS range        [5e-02, 9e+03]
Presolve removed 8966 rows and 2240 columns
Presolve time: 0.09s
Presolved: 1722 rows, 2771 columns, 11635 nonzeros
Presolved model has 400 quadratic constraint(s)
Variable types: 2371 continuous, 400 integer (400 binary)

Root relaxation: objective 4.097947e+03, 1331 iterations, 0.02 seconds (0.03 work units)

    Nodes    |    Current Node    |     Objective Bounds      |     Work
 Expl Unexpl |  Obj  Depth IntInf | Incumbent    BestBd   Gap | It/Node Time

     0     0 4097.94675    0    8          - 4097.94675      -     -    0s
     0     0 66068.2246    0  112          - 66068.2246      -     -    0s
     0     0 117255.582    0   64          - 117255.582      -     -    0s
     0     0 117259.458    0   60          - 117259.458      -     -    0s
     0     0 117285.841    0   36          - 117285.841      -     -    0s
     0     0 117285.945    0   36          - 117285.945      -     -    0s
     0     0 117285.945    0   36          - 117285.945      -     -    0s
     0     2 117285.947    0   36          - 117285.947      -     -    1s
H   81   107                    117294.97880 117289.391  0.00%   4.8    1s
*   81   107              23    117294.97880 117289.391  0.00%   4.8    1s

Cutting planes:
  Gomory: 27
  Implied bound: 97
  MIR: 28
  Flow cover: 99
  RLT: 4

Explored 130 nodes (3858 simplex iterations) in 1.85 seconds (1.49 work units)
Thread count was 4 (of 128 available processors)

Solution count 2: 117295 117295 

Optimal solution found (tolerance 1.00e-03)
Warning: max constraint violation (2.8252e-07) exceeds tolerance
Best objective 1.172949787984e+05, best bound 1.172893912860e+05, gap 0.0048%

Gurobi 11.0.3 (linux64) logging started Mon Aug 25 16:19:07 2025

Set parameter LogFile to value "/home/yihong/Coding/OR_SUC/SUC_epstheta_results_bigM100000_thread4/case24_ieee_rts_theta0.001_epsilon0.2_gurobi_seed80000_num_gen100_N_WDR50_load_scaling_factor1_ori_eps_T4quadra_cost_bc1.03.txt"
Set parameter TimeLimit to value 3600
Gurobi Optimizer version 11.0.3 build v11.0.3rc0 (linux64 - "Ubuntu 20.04.6 LTS")

CPU model: AMD EPYC 7532 32-Core Processor, instruction set [SSE2|AVX|AVX2]
Thread count: 64 physical cores, 128 logical processors, using up to 4 threads

Academic license 2399124 - for non-commercial use only - registered to yi___@ed.ac.uk
Optimize a model with 22856 rows, 5012 columns and 1703251 nonzeros
Model fingerprint: 0x02168295
Model has 401 quadratic constraints
Variable types: 4612 continuous, 400 integer (400 binary)
Coefficient statistics:
  Matrix range     [3e-04, 2e+03]
  QMatrix range    [2e-03, 5e+01]
  QLMatrix range   [6e-02, 6e+01]
  Objective range  [1e+00, 1e+00]
  Bounds range     [2e-01, 1e+00]
  RHS range        [4e-03, 1e+05]
  QRHS range       [5e-02, 5e-02]
Presolve removed 6852 rows and 1939 columns
Presolve time: 1.56s
Presolved: 16406 rows, 3474 columns, 344709 nonzeros
Presolved model has 400 quadratic constraint(s)
Presolved model has 1 bilinear constraint(s)
Warning: Model contains variables with very large bounds participating
         in product terms.
         Presolve was not able to compute smaller bounds for these variables.
         Consider bounding these variables or reformulating the model.


Solving non-convex MIQCP

Variable types: 3070 continuous, 404 integer (404 binary)

Root relaxation: objective 0.000000e+00, 1984 iterations, 0.29 seconds (0.76 work units)

    Nodes    |    Current Node    |     Objective Bounds      |     Work
 Expl Unexpl |  Obj  Depth IntInf | Incumbent    BestBd   Gap | It/Node Time

     0     0    0.00000    0    9          -    0.00000      -     -    3s
     0     0    0.00000    0    5          -    0.00000      -     -    4s
     0     0    0.00000    0    1          -    0.00000      -     -    4s
H    0     0                       0.0164107    0.00000   100%     -  443s
H    0     0                       0.0003048    0.00000   100%     -  443s
H    0     0                       0.0001626    0.00000   100%     -  443s
     0     0    0.00016    0    9    0.00016    0.00016  2.46%     -  443s
H    0     0                       0.0001626    0.00016  2.46%     -  443s
     0     0    0.00016    0    9    0.00016    0.00016  2.46%     -  444s
     0     0    0.00016    0    5    0.00016    0.00016  2.46%     -  444s
     0     0    0.00016    0    5    0.00016    0.00016  2.46%     -  444s
     0     0    0.00016    0    9    0.00016    0.00016  2.46%     -  444s
     0     0    0.00016    0    9    0.00016    0.00016  2.46%     -  444s
     0     0    0.00016    0    5    0.00016    0.00016  2.46%     -  445s
H    0     0                       0.0001625    0.00016  2.43%     -  445s
     0     0    0.00016    0    5    0.00016    0.00016  2.43%     -  445s
     0     0    0.00016    0    5    0.00016    0.00016  2.43%     -  445s
     0     0    0.00016    0    5    0.00016    0.00016  2.43%     -  445s
     0     0    0.00016    0    5    0.00016    0.00016  2.43%     -  446s
     0     0    0.00016    0    5    0.00016    0.00016  2.43%     -  446s
     0     0    0.00016    0    5    0.00016    0.00016  2.43%     -  446s
     0     0    0.00016    0    5    0.00016    0.00016  2.43%     -  446s
H    0     0                       0.0001616    0.00016  1.86%     -  446s
H    0     0                       0.0001615    0.00016  1.83%     -  446s
     0     2    0.00016    0    5    0.00016    0.00016  1.83%     -  446s
*  173    71              28       0.0001590    0.00016  0.26%   6.5 1099s
*  200    47              17       0.0001590    0.00016  0.24%   6.8 1645s
*  216     8              16       0.0001590    0.00016  0.24%   6.8 2329s
*  226     8              17       0.0001586    0.00016  0.00%   6.5 2844s

Cutting planes:
  Implied bound: 13
  MIR: 4
  Flow cover: 5
  Inf proof: 1
  RLT: 3
  PSD: 1

Explored 259 nodes (4732 simplex iterations) in 2844.79 seconds (1625.36 work units)
Thread count was 4 (of 128 available processors)

Solution count 10: 0.000158597 0.000158971 0.000158974 ... 0.000304801

Optimal solution found (tolerance 1.00e-03)
Best objective 1.585971184761e-04, best bound 1.585915601700e-04, gap 0.0035%
